stable/0.95/Alps/examples/Knap/data/easy/input45_2.mps
NAME          input45_
ROWS
 L  R0001
 N  R0002
COLUMNS
    INT1      'MARKER'                 'INTORG'
    C0001     R0001     13
    C0001     R0002     -23
    C0002     R0001     40
    C0002     R0002     -50
    C0003     R0001     30
    C0003     R0002     -40
    C0004     R0001     99
    C0004     R0002     -109
    C0005     R0001     53
    C0005     R0002     -63
    C0006     R0001     73
    C0006     R0002     -83
    C0007     R0001     59
    C0007     R0002     -69
    C0008     R0001     13
    C0008     R0002     -23
    C0009     R0001     33
    C0009     R0002     -43
    C0010     R0001     20
    C0010     R0002     -30
    C0011     R0001     23
    C0011     R0002     -33
    C0012     R0001     97
    C0012     R0002     -107
    C0013     R0001     46
    C0013     R0002     -56
    C0014     R0001     34
    C0014     R0002     -44
    C0015     R0001     30
    C0015     R0002     -40
    C0016     R0001     83
    C0016     R0002     -93
    C0017     R0001     60
    C0017     R0002     -70
    C0018     R0001     57
    C0018     R0002     -67
    C0019     R0001     3
    C0019     R0002     -13
    C0020     R0001     75
    C0020     R0002     -85
    C0021     R0001     16
    C0021     R0002     -26
    C0022     R0001     61
    C0022     R0002     -71
    C0023     R0001     58
    C0023     R0002     -68
    C0024     R0001     87
    C0024     R0002     -97
    C0025     R0001     34
    C0025     R0002     -44
    C0026     R0001     68
    C0026     R0002     -78
    C0027     R0001     72
    C0027     R0002     -82
    C0028     R0001     78
    C0028     R0002     -88
    C0029     R0001     39
    C0029     R0002     -49
    C0030     R0001     55
    C0030     R0002     -65
    C0031     R0001     61
    C0031     R0002     -71
    C0032     R0001     51
    C0032     R0002     -61
    C0033     R0001     95
    C0033     R0002     -105
    C0034     R0001     90
    C0034     R0002     -100
    C0035     R0001     51
    C0035     R0002     -61
    C0036     R0001     48
    C0036     R0002     -58
    C0037     R0001     64
    C0037     R0002     -74
    C0038     R0001     11
    C0038     R0002     -21
    C0039     R0001     61
    C0039     R0002     -71
    C0040     R0001     96
    C0040     R0002     -106
    C0041     R0001     30
    C0041     R0002     -40
    C0042     R0001     83
    C0042     R0002     -93
    C0043     R0001     94
    C0043     R0002     -104
    C0044     R0001     76
    C0044     R0002     -86
    C0045     R0001     17
    C0045     R0002     -27
    INT1END   'MARKER'                 'INTEND'
RHS
    B         R0001     974
BOUNDS
 UP BOUND     C0001     1
 UP BOUND     C0002     1
 UP BOUND     C0003     1
 UP BOUND     C0004     1
 UP BOUND     C0005     1
 UP BOUND     C0006     1
 UP BOUND     C0007     1
 UP BOUND     C0008     1
 UP BOUND     C0009     1
 UP BOUND     C0010     1
 UP BOUND     C0011     1
 UP BOUND     C0012     1
 UP BOUND     C0013     1
 UP BOUND     C0014     1
 UP BOUND     C0015     1
 UP BOUND     C0016     1
 UP BOUND     C0017     1
 UP BOUND     C0018     1
 UP BOUND     C0019     1
 UP BOUND     C0020     1
 UP BOUND     C0021     1
 UP BOUND     C0022     1
 UP BOUND     C0023     1
 UP BOUND     C0024     1
 UP BOUND     C0025     1
 UP BOUND     C0026     1
 UP BOUND     C0027     1
 UP BOUND     C0028     1
 UP BOUND     C0029     1
 UP BOUND     C0030     1
 UP BOUND     C0031     1
 UP BOUND     C0032     1
 UP BOUND     C0033     1
 UP BOUND     C0034     1
 UP BOUND     C0035     1
 UP BOUND     C0036     1
 UP BOUND     C0037     1
 UP BOUND     C0038     1
 UP BOUND     C0039     1
 UP BOUND     C0040     1
 UP BOUND     C0041     1
 UP BOUND     C0042     1
 UP BOUND     C0043     1
 UP BOUND     C0044     1
 UP BOUND     C0045     1
ENDATA
