stable/0.95/Alps/examples/Knap/data/easy/input45_2.txt
ITEM 13 23
ITEM 40 50
ITEM 30 40
ITEM 99 109
ITEM 53 63
ITEM 73 83
ITEM 59 69
ITEM 13 23
ITEM 33 43
ITEM 20 30
ITEM 23 33
ITEM 97 107
ITEM 46 56
ITEM 34 44
ITEM 30 40
ITEM 83 93
ITEM 60 70
ITEM 57 67
ITEM 3 13
ITEM 75 85
ITEM 16 26
ITEM 61 71
ITEM 58 68
ITEM 87 97
ITEM 34 44
ITEM 68 78
ITEM 72 82
ITEM 78 88
ITEM 39 49
ITEM 55 65
ITEM 61 71
ITEM 51 61
ITEM 95 105
ITEM 90 100
ITEM 51 61
ITEM 48 58
ITEM 64 74
ITEM 11 21
ITEM 61 71
ITEM 96 106
ITEM 30 40
ITEM 83 93
ITEM 94 104
ITEM 76 86
ITEM 17 27
CAPACITY 974
